17	4
13	11	11	13	
0	0	0	0	0	3	2	3	4	
9	2	0	0	0	3	6	17	17	
3	0	0	2	0	2	5	6	
2	0	0	0	4	1	17	
4	10	0	0	0	3	7	9	14	
250	0	0	1	0	1	17	
50	0	0	4	0	3	8	10	11	
175	0	9	0	0	3	16	17	17	
150	0	0	4	0	2	11	17	
225	8	0	0	0	2	12	17	
50	8	0	0	0	2	13	17	
125	3	0	0	0	1	17	
6	0	0	5	0	3	16	17	17	
5	0	0	3	0	2	15	17	
9	0	0	6	0	3	16	17	17	
9	0	0	10	0	1	17	
0	0	0	0	0	0	
